% Generated FlatZinc statistics:
%%%mzn-stat: paths=99654
%%%mzn-stat: flatBoolVars=2302
%%%mzn-stat: flatIntVars=4923
%%%mzn-stat: flatSetVars=2500
%%%mzn-stat: flatIntConstraints=5573
%%%mzn-stat: flatSetConstraints=4102
%%%mzn-stat: evaluatedReifiedConstraints=2302
%%%mzn-stat: method="minimize"
%%%mzn-stat: flatTime=12.3821
%%%mzn-stat-end
w = 2480; 
link_objective = 31; 
cpu_objective = 80; 
services2locs = [7, 4, 14, 12, 2, 9, 11, 10, 8, 13, 6, 4, 6, 9, 4, 4, 5, 3, 8, 6, 10, 1, 2, 3, 14, 7, 12, 10, 5, 9, 14, 6, 9, 14, 10, 7, 5, 5, 13, 12, 3, 1, 7, 8, 3, 12, 1, 8, 1, 13];
locations2names = ["ECU1", "ECU2", "ECU3", "DM1", "DM2", "DM3", "CAM1", "CAM2", "CAM3", "CAM4", "Display1", "Display2", "Display3", "Display4", "Switch1", "Switch2", "Switch3", "Switch4", "Switch5"];
services2names = ["S3_Video_1", "S3_Video_2", "S4_BE_1", "S4_BE_2", "S1_C&C_2_1", "S2_Audio_1", "S1_C&C_2_2", "S4_BE_3", "S4_BE_4", "S1_C&C_1_1", "S4_BE_5", "S4_BE_6", "S3_Video_3", "S2_Audio_2", "S2_Audio_3", "S4_BE_7", "S1_C&C_1_2", "S3_Video_4", "S3_Video_5", "S2_Audio_4", "S4_BE_8", "S2_Audio_5", "S4_BE_9", "S4_BE_10", "S1_C&C_1_3", "S1_C&C_2_3", "S2_Audio_6", "S1_C&C_1_4", "S4_BE_11", "S1_C&C_1_5", "S4_BE_12", "S1_C&C_1_6", "S4_BE_13", "S1_C&C_1_7", "S1_C&C_1_8", "S3_Video_6", "S4_BE_14", "S4_BE_15", "S1_C&C_1_9", "S2_Audio_7", "S4_BE_16", "S4_BE_17", "S4_BE_18", "S2_Audio_8", "S3_Video_7", "S4_BE_19", "S4_BE_20", "S1_C&C_2_4", "S3_Video_8", "S2_Audio_9"];
cpu_usage = [80, 40, 80, 80, 80, 80, 80, 80, 80, 80, 20, 80, 60, 80, 0, 0, 0, 0, 0]; 
slack = [76824928, 74917920, 76575872, 99768704, 95762592, 68312032, 95993888, 92575952, 96059744, 84067248, 80554448, 68182832, 99207600, 99960192, 85075952, 980046048, 96005600, 90885920]; 
charge = [23, 25, 23, 0, 4, 31, 4, 7, 3, 15, 19, 31, 0, 0, 14, 1, 3, 9]; 
----------
%%%mzn-stat: initTime=0.263881
%%%mzn-stat: solveTime=47.6736
%%%mzn-stat: solutions=22
%%%mzn-stat: variables=9730
%%%mzn-stat: propagators=9675
%%%mzn-stat: propagations=22044487
%%%mzn-stat: nodes=12537
%%%mzn-stat: failures=6204
%%%mzn-stat: restarts=0
%%%mzn-stat: peakDepth=59
%%%mzn-stat-end
%%%mzn-stat: nSolutions=1
%%%mzn-stat-end
